NAME : TSP_INST.7966003.tour
COMMENT : Length = 7966003
COMMENT : Found by LKH [Keld Helsgaun] Sat Oct 18 11:07:55 2025
TYPE : TOUR
DIMENSION : 100
TOUR_SECTION
1
45
22
93
75
94
20
81
40
7
4
23
32
63
24
58
46
43
69
85
90
17
79
95
28
51
66
97
68
12
44
6
59
61
74
41
92
96
18
82
2
47
83
98
52
3
53
72
77
80
26
11
13
9
70
71
39
21
48
56
91
34
65
99
76
14
89
36
84
33
73
5
10
55
42
16
87
88
25
57
64
49
15
50
35
27
19
29
62
78
31
37
54
86
100
67
8
30
38
60
-1
EOF
